************************************************************************
file with basedata            : mm7_.bas
initial value random generator: 295058235
************************************************************************
projects                      :  1
jobs (incl. supersource/sink ):  12
horizon                       :  84
RESOURCES
  - renewable                 :  2   R
  - nonrenewable              :  2   N
  - doubly constrained        :  0   D
************************************************************************
PROJECT INFORMATION:
pronr.  #jobs rel.date duedate tardcost  MPM-Time
    1     10      0       11        7       11
************************************************************************
PRECEDENCE RELATIONS:
jobnr.    #modes  #successors   successors
   1        1          3           2   3   4
   2        3          2           6  10
   3        3          2           5   7
   4        3          1           8
   5        3          2           9  10
   6        3          2           8  11
   7        3          2           9  11
   8        3          1           9
   9        3          1          12
  10        3          1          12
  11        3          1          12
  12        1          0        
************************************************************************
REQUESTS/DURATIONS:
jobnr. mode duration  R 1  R 2  N 1  N 2
------------------------------------------------------------------------
  1      1     0       0    0    0    0
  2      1     2       4    0    9    7
         2     2       0    9    9    7
         3     6       4    0    9    6
  3      1     4       5    0    2    5
         2    10       0    2    1    4
         3    10       0    1    2    2
  4      1     2       7    0    5   10
         2     3       0    3    3    7
         3     7       0    3    1    6
  5      1     4       0    3    7    8
         2     7       5    0    3    6
         3     8       4    0    2    1
  6      1     1       0    6    9    9
         2     3       7    0    8    9
         3    10       5    0    8    7
  7      1     2       0    6    2    8
         2     9       5    0    2    5
         3    10       0    3    2    1
  8      1     1       0    5    6    7
         2     4       0    4    4    6
         3     7       0    3    3    5
  9      1     3       0    7    8    8
         2     5       0    6    6    8
         3    10       0    6    5    5
 10      1     3       9    0    8    9
         2     4       3    0    8    4
         3     6       0    9    8    4
 11      1     4       0    9    7    5
         2     8       0    9    6    3
         3    10       8    0    1    2
 12      1     0       0    0    0    0
************************************************************************
RESOURCEAVAILABILITIES:
  R 1  R 2  N 1  N 2
    3   10   56   65
************************************************************************
MAXIMAL LAGS:
from  to  type  delay
    1   12   ES      0
    1    2   ES      0
    2   12   ES      0
    1    3   ES      0
    3   12   ES      0
    1    4   ES      0
    4   12   ES      0
    1    5   ES      0
    5   12   ES      0
    1    6   ES      0
    6   12   ES      0
    1    7   ES      0
    7   12   ES      0
    1    8   ES      0
    8   12   ES      0
    1    9   ES      0
    9   12   ES      0
    1   10   ES      0
   10   12   ES      0
    1   11   ES      0
   11   12   ES      0
    1   12   ES      0
    2    6   SS      7
    2    6   SE      5
    2    6   ES     11
    2    6   EE     -3
    2   10   SS     -9
    2   10   SE      1
   10    2   SE      0
    2   10   ES      0
    2   10   EE     -9
    3    5   SS     -8
    3    5   SE     -6
    3    5   ES      3
    3    5   EE     -3
    3    7   SS    -11
    3    7   SE      3
    3    7   ES      3
    3    7   EE      6
    4    8   SS     -4
    4    8   SE     -5
    4    8   ES     -5
    4    8   EE     -7
    5    9   SS     12
    5    9   SE     -2
    5    9   ES      1
    5    9   EE     -7
    5   10   SS     -6
    5   10   SE     11
    5   10   ES     10
    5   10   EE      4
    6    8   SS      9
    6    8   SE      6
    6    8   ES      7
    6    8   EE     -3
    6   11   SS      6
    6   11   SE      6
    6   11   ES     -9
    6   11   EE      7
    7    9   SS      2
    7    9   SE    -12
    7    9   ES    -10
    7    9   EE     10
    7   11   SS     -4
    7   11   SE     -7
    7   11   ES      1
    7   11   EE      9
    8    9   SS     -8
    8    9   SE    -12
    8    9   ES     -6
    8    9   EE      2
************************************************************************
